9 165 198 54 28 115 5 189 24 144 196 70 100 18 67 99 159 105 122 36 3 112 31 95 129 73 40 63 135 76 93 0 123 107 177 68 185 35 22 174 53 78 27 6 152 176 175 120 192 110 139 50 20 126 153 79 74 86 37 140 16 163 56 106 23 188 85 52 64 169 10 103 58 14 137 66 80 130 168 142 170 38 41 60 71 47 59 148 61 108 44 161 45 131 128 2 94 114 117 182 190 90 191 62 88 82 21 104 109 180 43 77 87 136 119 158 195 133 138 187 164 65 12 132 34 116 186 127 194 125 46 101 197 26 146 113 81 183 162 51 11 48 89 8 102 184 151 84 124 193 111 96 149 17 4 42 155 178 30 118 7 32 181 156 141 72 166 25 171 179 98 75 160 33 173 154 121 143 55 145 1 69 57 199 83 92 13 97 157 39 19 172 167 29 49 147 150 15 91 134 

